LED/led_19.lp
Minimize
x0 + x1 + x2 + x3 + x4 + x5 + x6 + x7 + x8 + x9 + x10 + x11 + x12 + x13 + x14 + x15 + x16 + x20 + x24 + x28 + x17 + x21 + x25 + x29 + x18 + x22 + x26 + x30 + x19 + x23 + x27 + x31 + x32 + x36 + x40 + x44 + x33 + x37 + x41 + x45 + x34 + x38 + x42 + x46 + x35 + x39 + x43 + x47 + x48 + x52 + x56 + x60 + x49 + x53 + x57 + x61 + x50 + x54 + x58 + x62 + x51 + x55 + x59 + x63 + x64 + x68 + x72 + x76 + x65 + x69 + x73 + x77 + x66 + x70 + x74 + x78 + x67 + x71 + x75 + x79 + x80 + x84 + x88 + x92 + x81 + x85 + x89 + x93 + x82 + x86 + x90 + x94 + x83 + x87 + x91 + x95 + x96 + x100 + x104 + x108 + x97 + x101 + x105 + x109 + x98 + x102 + x106 + x110 + x99 + x103 + x107 + x111 + x112 + x116 + x120 + x124 + x113 + x117 + x121 + x125 + x114 + x118 + x122 + x126 + x115 + x119 + x123 + x127 + x128 + x132 + x136 + x140 + x129 + x133 + x137 + x141 + x130 + x134 + x138 + x142 + x131 + x135 + x139 + x143 + x144 + x148 + x152 + x156 + x145 + x149 + x153 + x157 + x146 + x150 + x154 + x158 + x147 + x151 + x155 + x159 + x160 + x164 + x168 + x172 + x161 + x165 + x169 + x173 + x162 + x166 + x170 + x174 + x163 + x167 + x171 + x175 + x176 + x180 + x184 + x188 + x177 + x181 + x185 + x189 + x178 + x182 + x186 + x190 + x179 + x183 + x187 + x191 + x192 + x196 + x200 + x204 + x193 + x197 + x201 + x205 + x194 + x198 + x202 + x206 + x195 + x199 + x203 + x207 + x208 + x212 + x216 + x220 + x209 + x213 + x217 + x221 + x210 + x214 + x218 + x222 + x211 + x215 + x219 + x223 + x224 + x228 + x232 + x236 + x225 + x229 + x233 + x237 + x226 + x230 + x234 + x238 + x227 + x231 + x235 + x239 + x240 + x244 + x248 + x252 + x241 + x245 + x249 + x253 + x242 + x246 + x250 + x254 + x243 + x247 + x251 + x255 + x256 + x260 + x264 + x268 + x257 + x261 + x265 + x269 + x258 + x262 + x266 + x270 + x259 + x263 + x267 + x271 + x272 + x276 + x280 + x284 + x273 + x277 + x281 + x285 + x274 + x278 + x282 + x286 + x275 + x279 + x283 + x287 + x288 + x292 + x296 + x300 + x289 + x293 + x297 + x301 + x290 + x294 + x298 + x302 + x291 + x295 + x299 + x303 + 
Subject To
\\AddConstants
\\SBOX
\\SBOX
\\SBOX
\\SBOX
\\SBOX
\\SBOX
\\SBOX
\\SBOX
\\SBOX
\\SBOX
\\SBOX
\\SBOX
\\SBOX
\\SBOX
\\SBOX
\\SBOX
\\Identity
\\Identity
\\Identity
\\Identity
\\Identity
\\Identity
\\Identity
\\Identity
\\Identity
\\Identity
\\Identity
\\Identity
\\Identity
\\Identity
\\Identity
\\Identity
\\GFColumnMultiplication
x0 + x5 + x10 + x15 + x16 + x17 + x18 + x19 - 5 d0 >= 0
d0 - x0 >= 0
d0 - x5 >= 0
d0 - x10 >= 0
d0 - x15 >= 0
d0 - x16 >= 0
d0 - x17 >= 0
d0 - x18 >= 0
d0 - x19 >= 0
\\GFColumnMultiplication
x4 + x9 + x14 + x3 + x20 + x21 + x22 + x23 - 5 d1 >= 0
d1 - x4 >= 0
d1 - x9 >= 0
d1 - x14 >= 0
d1 - x3 >= 0
d1 - x20 >= 0
d1 - x21 >= 0
d1 - x22 >= 0
d1 - x23 >= 0
\\GFColumnMultiplication
x8 + x13 + x2 + x7 + x24 + x25 + x26 + x27 - 5 d2 >= 0
d2 - x8 >= 0
d2 - x13 >= 0
d2 - x2 >= 0
d2 - x7 >= 0
d2 - x24 >= 0
d2 - x25 >= 0
d2 - x26 >= 0
d2 - x27 >= 0
\\GFColumnMultiplication
x12 + x1 + x6 + x11 + x28 + x29 + x30 + x31 - 5 d3 >= 0
d3 - x12 >= 0
d3 - x1 >= 0
d3 - x6 >= 0
d3 - x11 >= 0
d3 - x28 >= 0
d3 - x29 >= 0
d3 - x30 >= 0
d3 - x31 >= 0
\\AddConstants
\\SBOX
\\SBOX
\\SBOX
\\SBOX
\\SBOX
\\SBOX
\\SBOX
\\SBOX
\\SBOX
\\SBOX
\\SBOX
\\SBOX
\\SBOX
\\SBOX
\\SBOX
\\SBOX
\\Identity
\\Identity
\\Identity
\\Identity
\\Identity
\\Identity
\\Identity
\\Identity
\\Identity
\\Identity
\\Identity
\\Identity
\\Identity
\\Identity
\\Identity
\\Identity
\\GFColumnMultiplication
x16 + x21 + x26 + x31 + x32 + x33 + x34 + x35 - 5 d4 >= 0
d4 - x16 >= 0
d4 - x21 >= 0
d4 - x26 >= 0
d4 - x31 >= 0
d4 - x32 >= 0
d4 - x33 >= 0
d4 - x34 >= 0
d4 - x35 >= 0
\\GFColumnMultiplication
x17 + x22 + x27 + x28 + x36 + x37 + x38 + x39 - 5 d5 >= 0
d5 - x17 >= 0
d5 - x22 >= 0
d5 - x27 >= 0
d5 - x28 >= 0
d5 - x36 >= 0
d5 - x37 >= 0
d5 - x38 >= 0
d5 - x39 >= 0
\\GFColumnMultiplication
x18 + x23 + x24 + x29 + x40 + x41 + x42 + x43 - 5 d6 >= 0
d6 - x18 >= 0
d6 - x23 >= 0
d6 - x24 >= 0
d6 - x29 >= 0
d6 - x40 >= 0
d6 - x41 >= 0
d6 - x42 >= 0
d6 - x43 >= 0
\\GFColumnMultiplication
x19 + x20 + x25 + x30 + x44 + x45 + x46 + x47 - 5 d7 >= 0
d7 - x19 >= 0
d7 - x20 >= 0
d7 - x25 >= 0
d7 - x30 >= 0
d7 - x44 >= 0
d7 - x45 >= 0
d7 - x46 >= 0
d7 - x47 >= 0
\\AddConstants
\\SBOX
\\SBOX
\\SBOX
\\SBOX
\\SBOX
\\SBOX
\\SBOX
\\SBOX
\\SBOX
\\SBOX
\\SBOX
\\SBOX
\\SBOX
\\SBOX
\\SBOX
\\SBOX
\\Identity
\\Identity
\\Identity
\\Identity
\\Identity
\\Identity
\\Identity
\\Identity
\\Identity
\\Identity
\\Identity
\\Identity
\\Identity
\\Identity
\\Identity
\\Identity
\\GFColumnMultiplication
x32 + x37 + x42 + x47 + x48 + x49 + x50 + x51 - 5 d8 >= 0
d8 - x32 >= 0
d8 - x37 >= 0
d8 - x42 >= 0
d8 - x47 >= 0
d8 - x48 >= 0
d8 - x49 >= 0
d8 - x50 >= 0
d8 - x51 >= 0
\\GFColumnMultiplication
x33 + x38 + x43 + x44 + x52 + x53 + x54 + x55 - 5 d9 >= 0
d9 - x33 >= 0
d9 - x38 >= 0
d9 - x43 >= 0
d9 - x44 >= 0
d9 - x52 >= 0
d9 - x53 >= 0
d9 - x54 >= 0
d9 - x55 >= 0
\\GFColumnMultiplication
x34 + x39 + x40 + x45 + x56 + x57 + x58 + x59 - 5 d10 >= 0
d10 - x34 >= 0
d10 - x39 >= 0
d10 - x40 >= 0
d10 - x45 >= 0
d10 - x56 >= 0
d10 - x57 >= 0
d10 - x58 >= 0
d10 - x59 >= 0
\\GFColumnMultiplication
x35 + x36 + x41 + x46 + x60 + x61 + x62 + x63 - 5 d11 >= 0
d11 - x35 >= 0
d11 - x36 >= 0
d11 - x41 >= 0
d11 - x46 >= 0
d11 - x60 >= 0
d11 - x61 >= 0
d11 - x62 >= 0
d11 - x63 >= 0
\\AddConstants
\\SBOX
\\SBOX
\\SBOX
\\SBOX
\\SBOX
\\SBOX
\\SBOX
\\SBOX
\\SBOX
\\SBOX
\\SBOX
\\SBOX
\\SBOX
\\SBOX
\\SBOX
\\SBOX
\\Identity
\\Identity
\\Identity
\\Identity
\\Identity
\\Identity
\\Identity
\\Identity
\\Identity
\\Identity
\\Identity
\\Identity
\\Identity
\\Identity
\\Identity
\\Identity
\\GFColumnMultiplication
x48 + x53 + x58 + x63 + x64 + x65 + x66 + x67 - 5 d12 >= 0
d12 - x48 >= 0
d12 - x53 >= 0
d12 - x58 >= 0
d12 - x63 >= 0
d12 - x64 >= 0
d12 - x65 >= 0
d12 - x66 >= 0
d12 - x67 >= 0
\\GFColumnMultiplication
x49 + x54 + x59 + x60 + x68 + x69 + x70 + x71 - 5 d13 >= 0
d13 - x49 >= 0
d13 - x54 >= 0
d13 - x59 >= 0
d13 - x60 >= 0
d13 - x68 >= 0
d13 - x69 >= 0
d13 - x70 >= 0
d13 - x71 >= 0
\\GFColumnMultiplication
x50 + x55 + x56 + x61 + x72 + x73 + x74 + x75 - 5 d14 >= 0
d14 - x50 >= 0
d14 - x55 >= 0
d14 - x56 >= 0
d14 - x61 >= 0
d14 - x72 >= 0
d14 - x73 >= 0
d14 - x74 >= 0
d14 - x75 >= 0
\\GFColumnMultiplication
x51 + x52 + x57 + x62 + x76 + x77 + x78 + x79 - 5 d15 >= 0
d15 - x51 >= 0
d15 - x52 >= 0
d15 - x57 >= 0
d15 - x62 >= 0
d15 - x76 >= 0
d15 - x77 >= 0
d15 - x78 >= 0
d15 - x79 >= 0
\\AddConstants
\\SBOX
\\SBOX
\\SBOX
\\SBOX
\\SBOX
\\SBOX
\\SBOX
\\SBOX
\\SBOX
\\SBOX
\\SBOX
\\SBOX
\\SBOX
\\SBOX
\\SBOX
\\SBOX
\\Identity
\\Identity
\\Identity
\\Identity
\\Identity
\\Identity
\\Identity
\\Identity
\\Identity
\\Identity
\\Identity
\\Identity
\\Identity
\\Identity
\\Identity
\\Identity
\\GFColumnMultiplication
x64 + x69 + x74 + x79 + x80 + x81 + x82 + x83 - 5 d16 >= 0
d16 - x64 >= 0
d16 - x69 >= 0
d16 - x74 >= 0
d16 - x79 >= 0
d16 - x80 >= 0
d16 - x81 >= 0
d16 - x82 >= 0
d16 - x83 >= 0
\\GFColumnMultiplication
x65 + x70 + x75 + x76 + x84 + x85 + x86 + x87 - 5 d17 >= 0
d17 - x65 >= 0
d17 - x70 >= 0
d17 - x75 >= 0
d17 - x76 >= 0
d17 - x84 >= 0
d17 - x85 >= 0
d17 - x86 >= 0
d17 - x87 >= 0
\\GFColumnMultiplication
x66 + x71 + x72 + x77 + x88 + x89 + x90 + x91 - 5 d18 >= 0
d18 - x66 >= 0
d18 - x71 >= 0
d18 - x72 >= 0
d18 - x77 >= 0
d18 - x88 >= 0
d18 - x89 >= 0
d18 - x90 >= 0
d18 - x91 >= 0
\\GFColumnMultiplication
x67 + x68 + x73 + x78 + x92 + x93 + x94 + x95 - 5 d19 >= 0
d19 - x67 >= 0
d19 - x68 >= 0
d19 - x73 >= 0
d19 - x78 >= 0
d19 - x92 >= 0
d19 - x93 >= 0
d19 - x94 >= 0
d19 - x95 >= 0
\\AddConstants
\\SBOX
\\SBOX
\\SBOX
\\SBOX
\\SBOX
\\SBOX
\\SBOX
\\SBOX
\\SBOX
\\SBOX
\\SBOX
\\SBOX
\\SBOX
\\SBOX
\\SBOX
\\SBOX
\\Identity
\\Identity
\\Identity
\\Identity
\\Identity
\\Identity
\\Identity
\\Identity
\\Identity
\\Identity
\\Identity
\\Identity
\\Identity
\\Identity
\\Identity
\\Identity
\\GFColumnMultiplication
x80 + x85 + x90 + x95 + x96 + x97 + x98 + x99 - 5 d20 >= 0
d20 - x80 >= 0
d20 - x85 >= 0
d20 - x90 >= 0
d20 - x95 >= 0
d20 - x96 >= 0
d20 - x97 >= 0
d20 - x98 >= 0
d20 - x99 >= 0
\\GFColumnMultiplication
x81 + x86 + x91 + x92 + x100 + x101 + x102 + x103 - 5 d21 >= 0
d21 - x81 >= 0
d21 - x86 >= 0
d21 - x91 >= 0
d21 - x92 >= 0
d21 - x100 >= 0
d21 - x101 >= 0
d21 - x102 >= 0
d21 - x103 >= 0
\\GFColumnMultiplication
x82 + x87 + x88 + x93 + x104 + x105 + x106 + x107 - 5 d22 >= 0
d22 - x82 >= 0
d22 - x87 >= 0
d22 - x88 >= 0
d22 - x93 >= 0
d22 - x104 >= 0
d22 - x105 >= 0
d22 - x106 >= 0
d22 - x107 >= 0
\\GFColumnMultiplication
x83 + x84 + x89 + x94 + x108 + x109 + x110 + x111 - 5 d23 >= 0
d23 - x83 >= 0
d23 - x84 >= 0
d23 - x89 >= 0
d23 - x94 >= 0
d23 - x108 >= 0
d23 - x109 >= 0
d23 - x110 >= 0
d23 - x111 >= 0
\\AddConstants
\\SBOX
\\SBOX
\\SBOX
\\SBOX
\\SBOX
\\SBOX
\\SBOX
\\SBOX
\\SBOX
\\SBOX
\\SBOX
\\SBOX
\\SBOX
\\SBOX
\\SBOX
\\SBOX
\\Identity
\\Identity
\\Identity
\\Identity
\\Identity
\\Identity
\\Identity
\\Identity
\\Identity
\\Identity
\\Identity
\\Identity
\\Identity
\\Identity
\\Identity
\\Identity
\\GFColumnMultiplication
x96 + x101 + x106 + x111 + x112 + x113 + x114 + x115 - 5 d24 >= 0
d24 - x96 >= 0
d24 - x101 >= 0
d24 - x106 >= 0
d24 - x111 >= 0
d24 - x112 >= 0
d24 - x113 >= 0
d24 - x114 >= 0
d24 - x115 >= 0
\\GFColumnMultiplication
x97 + x102 + x107 + x108 + x116 + x117 + x118 + x119 - 5 d25 >= 0
d25 - x97 >= 0
d25 - x102 >= 0
d25 - x107 >= 0
d25 - x108 >= 0
d25 - x116 >= 0
d25 - x117 >= 0
d25 - x118 >= 0
d25 - x119 >= 0
\\GFColumnMultiplication
x98 + x103 + x104 + x109 + x120 + x121 + x122 + x123 - 5 d26 >= 0
d26 - x98 >= 0
d26 - x103 >= 0
d26 - x104 >= 0
d26 - x109 >= 0
d26 - x120 >= 0
d26 - x121 >= 0
d26 - x122 >= 0
d26 - x123 >= 0
\\GFColumnMultiplication
x99 + x100 + x105 + x110 + x124 + x125 + x126 + x127 - 5 d27 >= 0
d27 - x99 >= 0
d27 - x100 >= 0
d27 - x105 >= 0
d27 - x110 >= 0
d27 - x124 >= 0
d27 - x125 >= 0
d27 - x126 >= 0
d27 - x127 >= 0
\\AddConstants
\\SBOX
\\SBOX
\\SBOX
\\SBOX
\\SBOX
\\SBOX
\\SBOX
\\SBOX
\\SBOX
\\SBOX
\\SBOX
\\SBOX
\\SBOX
\\SBOX
\\SBOX
\\SBOX
\\Identity
\\Identity
\\Identity
\\Identity
\\Identity
\\Identity
\\Identity
\\Identity
\\Identity
\\Identity
\\Identity
\\Identity
\\Identity
\\Identity
\\Identity
\\Identity
\\GFColumnMultiplication
x112 + x117 + x122 + x127 + x128 + x129 + x130 + x131 - 5 d28 >= 0
d28 - x112 >= 0
d28 - x117 >= 0
d28 - x122 >= 0
d28 - x127 >= 0
d28 - x128 >= 0
d28 - x129 >= 0
d28 - x130 >= 0
d28 - x131 >= 0
\\GFColumnMultiplication
x113 + x118 + x123 + x124 + x132 + x133 + x134 + x135 - 5 d29 >= 0
d29 - x113 >= 0
d29 - x118 >= 0
d29 - x123 >= 0
d29 - x124 >= 0
d29 - x132 >= 0
d29 - x133 >= 0
d29 - x134 >= 0
d29 - x135 >= 0
\\GFColumnMultiplication
x114 + x119 + x120 + x125 + x136 + x137 + x138 + x139 - 5 d30 >= 0
d30 - x114 >= 0
d30 - x119 >= 0
d30 - x120 >= 0
d30 - x125 >= 0
d30 - x136 >= 0
d30 - x137 >= 0
d30 - x138 >= 0
d30 - x139 >= 0
\\GFColumnMultiplication
x115 + x116 + x121 + x126 + x140 + x141 + x142 + x143 - 5 d31 >= 0
d31 - x115 >= 0
d31 - x116 >= 0
d31 - x121 >= 0
d31 - x126 >= 0
d31 - x140 >= 0
d31 - x141 >= 0
d31 - x142 >= 0
d31 - x143 >= 0
\\AddConstants
\\SBOX
\\SBOX
\\SBOX
\\SBOX
\\SBOX
\\SBOX
\\SBOX
\\SBOX
\\SBOX
\\SBOX
\\SBOX
\\SBOX
\\SBOX
\\SBOX
\\SBOX
\\SBOX
\\Identity
\\Identity
\\Identity
\\Identity
\\Identity
\\Identity
\\Identity
\\Identity
\\Identity
\\Identity
\\Identity
\\Identity
\\Identity
\\Identity
\\Identity
\\Identity
\\GFColumnMultiplication
x128 + x133 + x138 + x143 + x144 + x145 + x146 + x147 - 5 d32 >= 0
d32 - x128 >= 0
d32 - x133 >= 0
d32 - x138 >= 0
d32 - x143 >= 0
d32 - x144 >= 0
d32 - x145 >= 0
d32 - x146 >= 0
d32 - x147 >= 0
\\GFColumnMultiplication
x129 + x134 + x139 + x140 + x148 + x149 + x150 + x151 - 5 d33 >= 0
d33 - x129 >= 0
d33 - x134 >= 0
d33 - x139 >= 0
d33 - x140 >= 0
d33 - x148 >= 0
d33 - x149 >= 0
d33 - x150 >= 0
d33 - x151 >= 0
\\GFColumnMultiplication
x130 + x135 + x136 + x141 + x152 + x153 + x154 + x155 - 5 d34 >= 0
d34 - x130 >= 0
d34 - x135 >= 0
d34 - x136 >= 0
d34 - x141 >= 0
d34 - x152 >= 0
d34 - x153 >= 0
d34 - x154 >= 0
d34 - x155 >= 0
\\GFColumnMultiplication
x131 + x132 + x137 + x142 + x156 + x157 + x158 + x159 - 5 d35 >= 0
d35 - x131 >= 0
d35 - x132 >= 0
d35 - x137 >= 0
d35 - x142 >= 0
d35 - x156 >= 0
d35 - x157 >= 0
d35 - x158 >= 0
d35 - x159 >= 0
\\AddConstants
\\SBOX
\\SBOX
\\SBOX
\\SBOX
\\SBOX
\\SBOX
\\SBOX
\\SBOX
\\SBOX
\\SBOX
\\SBOX
\\SBOX
\\SBOX
\\SBOX
\\SBOX
\\SBOX
\\Identity
\\Identity
\\Identity
\\Identity
\\Identity
\\Identity
\\Identity
\\Identity
\\Identity
\\Identity
\\Identity
\\Identity
\\Identity
\\Identity
\\Identity
\\Identity
\\GFColumnMultiplication
x144 + x149 + x154 + x159 + x160 + x161 + x162 + x163 - 5 d36 >= 0
d36 - x144 >= 0
d36 - x149 >= 0
d36 - x154 >= 0
d36 - x159 >= 0
d36 - x160 >= 0
d36 - x161 >= 0
d36 - x162 >= 0
d36 - x163 >= 0
\\GFColumnMultiplication
x145 + x150 + x155 + x156 + x164 + x165 + x166 + x167 - 5 d37 >= 0
d37 - x145 >= 0
d37 - x150 >= 0
d37 - x155 >= 0
d37 - x156 >= 0
d37 - x164 >= 0
d37 - x165 >= 0
d37 - x166 >= 0
d37 - x167 >= 0
\\GFColumnMultiplication
x146 + x151 + x152 + x157 + x168 + x169 + x170 + x171 - 5 d38 >= 0
d38 - x146 >= 0
d38 - x151 >= 0
d38 - x152 >= 0
d38 - x157 >= 0
d38 - x168 >= 0
d38 - x169 >= 0
d38 - x170 >= 0
d38 - x171 >= 0
\\GFColumnMultiplication
x147 + x148 + x153 + x158 + x172 + x173 + x174 + x175 - 5 d39 >= 0
d39 - x147 >= 0
d39 - x148 >= 0
d39 - x153 >= 0
d39 - x158 >= 0
d39 - x172 >= 0
d39 - x173 >= 0
d39 - x174 >= 0
d39 - x175 >= 0
\\AddConstants
\\SBOX
\\SBOX
\\SBOX
\\SBOX
\\SBOX
\\SBOX
\\SBOX
\\SBOX
\\SBOX
\\SBOX
\\SBOX
\\SBOX
\\SBOX
\\SBOX
\\SBOX
\\SBOX
\\Identity
\\Identity
\\Identity
\\Identity
\\Identity
\\Identity
\\Identity
\\Identity
\\Identity
\\Identity
\\Identity
\\Identity
\\Identity
\\Identity
\\Identity
\\Identity
\\GFColumnMultiplication
x160 + x165 + x170 + x175 + x176 + x177 + x178 + x179 - 5 d40 >= 0
d40 - x160 >= 0
d40 - x165 >= 0
d40 - x170 >= 0
d40 - x175 >= 0
d40 - x176 >= 0
d40 - x177 >= 0
d40 - x178 >= 0
d40 - x179 >= 0
\\GFColumnMultiplication
x161 + x166 + x171 + x172 + x180 + x181 + x182 + x183 - 5 d41 >= 0
d41 - x161 >= 0
d41 - x166 >= 0
d41 - x171 >= 0
d41 - x172 >= 0
d41 - x180 >= 0
d41 - x181 >= 0
d41 - x182 >= 0
d41 - x183 >= 0
\\GFColumnMultiplication
x162 + x167 + x168 + x173 + x184 + x185 + x186 + x187 - 5 d42 >= 0
d42 - x162 >= 0
d42 - x167 >= 0
d42 - x168 >= 0
d42 - x173 >= 0
d42 - x184 >= 0
d42 - x185 >= 0
d42 - x186 >= 0
d42 - x187 >= 0
\\GFColumnMultiplication
x163 + x164 + x169 + x174 + x188 + x189 + x190 + x191 - 5 d43 >= 0
d43 - x163 >= 0
d43 - x164 >= 0
d43 - x169 >= 0
d43 - x174 >= 0
d43 - x188 >= 0
d43 - x189 >= 0
d43 - x190 >= 0
d43 - x191 >= 0
\\AddConstants
\\SBOX
\\SBOX
\\SBOX
\\SBOX
\\SBOX
\\SBOX
\\SBOX
\\SBOX
\\SBOX
\\SBOX
\\SBOX
\\SBOX
\\SBOX
\\SBOX
\\SBOX
\\SBOX
\\Identity
\\Identity
\\Identity
\\Identity
\\Identity
\\Identity
\\Identity
\\Identity
\\Identity
\\Identity
\\Identity
\\Identity
\\Identity
\\Identity
\\Identity
\\Identity
\\GFColumnMultiplication
x176 + x181 + x186 + x191 + x192 + x193 + x194 + x195 - 5 d44 >= 0
d44 - x176 >= 0
d44 - x181 >= 0
d44 - x186 >= 0
d44 - x191 >= 0
d44 - x192 >= 0
d44 - x193 >= 0
d44 - x194 >= 0
d44 - x195 >= 0
\\GFColumnMultiplication
x177 + x182 + x187 + x188 + x196 + x197 + x198 + x199 - 5 d45 >= 0
d45 - x177 >= 0
d45 - x182 >= 0
d45 - x187 >= 0
d45 - x188 >= 0
d45 - x196 >= 0
d45 - x197 >= 0
d45 - x198 >= 0
d45 - x199 >= 0
\\GFColumnMultiplication
x178 + x183 + x184 + x189 + x200 + x201 + x202 + x203 - 5 d46 >= 0
d46 - x178 >= 0
d46 - x183 >= 0
d46 - x184 >= 0
d46 - x189 >= 0
d46 - x200 >= 0
d46 - x201 >= 0
d46 - x202 >= 0
d46 - x203 >= 0
\\GFColumnMultiplication
x179 + x180 + x185 + x190 + x204 + x205 + x206 + x207 - 5 d47 >= 0
d47 - x179 >= 0
d47 - x180 >= 0
d47 - x185 >= 0
d47 - x190 >= 0
d47 - x204 >= 0
d47 - x205 >= 0
d47 - x206 >= 0
d47 - x207 >= 0
\\AddConstants
\\SBOX
\\SBOX
\\SBOX
\\SBOX
\\SBOX
\\SBOX
\\SBOX
\\SBOX
\\SBOX
\\SBOX
\\SBOX
\\SBOX
\\SBOX
\\SBOX
\\SBOX
\\SBOX
\\Identity
\\Identity
\\Identity
\\Identity
\\Identity
\\Identity
\\Identity
\\Identity
\\Identity
\\Identity
\\Identity
\\Identity
\\Identity
\\Identity
\\Identity
\\Identity
\\GFColumnMultiplication
x192 + x197 + x202 + x207 + x208 + x209 + x210 + x211 - 5 d48 >= 0
d48 - x192 >= 0
d48 - x197 >= 0
d48 - x202 >= 0
d48 - x207 >= 0
d48 - x208 >= 0
d48 - x209 >= 0
d48 - x210 >= 0
d48 - x211 >= 0
\\GFColumnMultiplication
x193 + x198 + x203 + x204 + x212 + x213 + x214 + x215 - 5 d49 >= 0
d49 - x193 >= 0
d49 - x198 >= 0
d49 - x203 >= 0
d49 - x204 >= 0
d49 - x212 >= 0
d49 - x213 >= 0
d49 - x214 >= 0
d49 - x215 >= 0
\\GFColumnMultiplication
x194 + x199 + x200 + x205 + x216 + x217 + x218 + x219 - 5 d50 >= 0
d50 - x194 >= 0
d50 - x199 >= 0
d50 - x200 >= 0
d50 - x205 >= 0
d50 - x216 >= 0
d50 - x217 >= 0
d50 - x218 >= 0
d50 - x219 >= 0
\\GFColumnMultiplication
x195 + x196 + x201 + x206 + x220 + x221 + x222 + x223 - 5 d51 >= 0
d51 - x195 >= 0
d51 - x196 >= 0
d51 - x201 >= 0
d51 - x206 >= 0
d51 - x220 >= 0
d51 - x221 >= 0
d51 - x222 >= 0
d51 - x223 >= 0
\\AddConstants
\\SBOX
\\SBOX
\\SBOX
\\SBOX
\\SBOX
\\SBOX
\\SBOX
\\SBOX
\\SBOX
\\SBOX
\\SBOX
\\SBOX
\\SBOX
\\SBOX
\\SBOX
\\SBOX
\\Identity
\\Identity
\\Identity
\\Identity
\\Identity
\\Identity
\\Identity
\\Identity
\\Identity
\\Identity
\\Identity
\\Identity
\\Identity
\\Identity
\\Identity
\\Identity
\\GFColumnMultiplication
x208 + x213 + x218 + x223 + x224 + x225 + x226 + x227 - 5 d52 >= 0
d52 - x208 >= 0
d52 - x213 >= 0
d52 - x218 >= 0
d52 - x223 >= 0
d52 - x224 >= 0
d52 - x225 >= 0
d52 - x226 >= 0
d52 - x227 >= 0
\\GFColumnMultiplication
x209 + x214 + x219 + x220 + x228 + x229 + x230 + x231 - 5 d53 >= 0
d53 - x209 >= 0
d53 - x214 >= 0
d53 - x219 >= 0
d53 - x220 >= 0
d53 - x228 >= 0
d53 - x229 >= 0
d53 - x230 >= 0
d53 - x231 >= 0
\\GFColumnMultiplication
x210 + x215 + x216 + x221 + x232 + x233 + x234 + x235 - 5 d54 >= 0
d54 - x210 >= 0
d54 - x215 >= 0
d54 - x216 >= 0
d54 - x221 >= 0
d54 - x232 >= 0
d54 - x233 >= 0
d54 - x234 >= 0
d54 - x235 >= 0
\\GFColumnMultiplication
x211 + x212 + x217 + x222 + x236 + x237 + x238 + x239 - 5 d55 >= 0
d55 - x211 >= 0
d55 - x212 >= 0
d55 - x217 >= 0
d55 - x222 >= 0
d55 - x236 >= 0
d55 - x237 >= 0
d55 - x238 >= 0
d55 - x239 >= 0
\\AddConstants
\\SBOX
\\SBOX
\\SBOX
\\SBOX
\\SBOX
\\SBOX
\\SBOX
\\SBOX
\\SBOX
\\SBOX
\\SBOX
\\SBOX
\\SBOX
\\SBOX
\\SBOX
\\SBOX
\\Identity
\\Identity
\\Identity
\\Identity
\\Identity
\\Identity
\\Identity
\\Identity
\\Identity
\\Identity
\\Identity
\\Identity
\\Identity
\\Identity
\\Identity
\\Identity
\\GFColumnMultiplication
x224 + x229 + x234 + x239 + x240 + x241 + x242 + x243 - 5 d56 >= 0
d56 - x224 >= 0
d56 - x229 >= 0
d56 - x234 >= 0
d56 - x239 >= 0
d56 - x240 >= 0
d56 - x241 >= 0
d56 - x242 >= 0
d56 - x243 >= 0
\\GFColumnMultiplication
x225 + x230 + x235 + x236 + x244 + x245 + x246 + x247 - 5 d57 >= 0
d57 - x225 >= 0
d57 - x230 >= 0
d57 - x235 >= 0
d57 - x236 >= 0
d57 - x244 >= 0
d57 - x245 >= 0
d57 - x246 >= 0
d57 - x247 >= 0
\\GFColumnMultiplication
x226 + x231 + x232 + x237 + x248 + x249 + x250 + x251 - 5 d58 >= 0
d58 - x226 >= 0
d58 - x231 >= 0
d58 - x232 >= 0
d58 - x237 >= 0
d58 - x248 >= 0
d58 - x249 >= 0
d58 - x250 >= 0
d58 - x251 >= 0
\\GFColumnMultiplication
x227 + x228 + x233 + x238 + x252 + x253 + x254 + x255 - 5 d59 >= 0
d59 - x227 >= 0
d59 - x228 >= 0
d59 - x233 >= 0
d59 - x238 >= 0
d59 - x252 >= 0
d59 - x253 >= 0
d59 - x254 >= 0
d59 - x255 >= 0
\\AddConstants
\\SBOX
\\SBOX
\\SBOX
\\SBOX
\\SBOX
\\SBOX
\\SBOX
\\SBOX
\\SBOX
\\SBOX
\\SBOX
\\SBOX
\\SBOX
\\SBOX
\\SBOX
\\SBOX
\\Identity
\\Identity
\\Identity
\\Identity
\\Identity
\\Identity
\\Identity
\\Identity
\\Identity
\\Identity
\\Identity
\\Identity
\\Identity
\\Identity
\\Identity
\\Identity
\\GFColumnMultiplication
x240 + x245 + x250 + x255 + x256 + x257 + x258 + x259 - 5 d60 >= 0
d60 - x240 >= 0
d60 - x245 >= 0
d60 - x250 >= 0
d60 - x255 >= 0
d60 - x256 >= 0
d60 - x257 >= 0
d60 - x258 >= 0
d60 - x259 >= 0
\\GFColumnMultiplication
x241 + x246 + x251 + x252 + x260 + x261 + x262 + x263 - 5 d61 >= 0
d61 - x241 >= 0
d61 - x246 >= 0
d61 - x251 >= 0
d61 - x252 >= 0
d61 - x260 >= 0
d61 - x261 >= 0
d61 - x262 >= 0
d61 - x263 >= 0
\\GFColumnMultiplication
x242 + x247 + x248 + x253 + x264 + x265 + x266 + x267 - 5 d62 >= 0
d62 - x242 >= 0
d62 - x247 >= 0
d62 - x248 >= 0
d62 - x253 >= 0
d62 - x264 >= 0
d62 - x265 >= 0
d62 - x266 >= 0
d62 - x267 >= 0
\\GFColumnMultiplication
x243 + x244 + x249 + x254 + x268 + x269 + x270 + x271 - 5 d63 >= 0
d63 - x243 >= 0
d63 - x244 >= 0
d63 - x249 >= 0
d63 - x254 >= 0
d63 - x268 >= 0
d63 - x269 >= 0
d63 - x270 >= 0
d63 - x271 >= 0
\\AddConstants
\\SBOX
\\SBOX
\\SBOX
\\SBOX
\\SBOX
\\SBOX
\\SBOX
\\SBOX
\\SBOX
\\SBOX
\\SBOX
\\SBOX
\\SBOX
\\SBOX
\\SBOX
\\SBOX
\\Identity
\\Identity
\\Identity
\\Identity
\\Identity
\\Identity
\\Identity
\\Identity
\\Identity
\\Identity
\\Identity
\\Identity
\\Identity
\\Identity
\\Identity
\\Identity
\\GFColumnMultiplication
x256 + x261 + x266 + x271 + x272 + x273 + x274 + x275 - 5 d64 >= 0
d64 - x256 >= 0
d64 - x261 >= 0
d64 - x266 >= 0
d64 - x271 >= 0
d64 - x272 >= 0
d64 - x273 >= 0
d64 - x274 >= 0
d64 - x275 >= 0
\\GFColumnMultiplication
x257 + x262 + x267 + x268 + x276 + x277 + x278 + x279 - 5 d65 >= 0
d65 - x257 >= 0
d65 - x262 >= 0
d65 - x267 >= 0
d65 - x268 >= 0
d65 - x276 >= 0
d65 - x277 >= 0
d65 - x278 >= 0
d65 - x279 >= 0
\\GFColumnMultiplication
x258 + x263 + x264 + x269 + x280 + x281 + x282 + x283 - 5 d66 >= 0
d66 - x258 >= 0
d66 - x263 >= 0
d66 - x264 >= 0
d66 - x269 >= 0
d66 - x280 >= 0
d66 - x281 >= 0
d66 - x282 >= 0
d66 - x283 >= 0
\\GFColumnMultiplication
x259 + x260 + x265 + x270 + x284 + x285 + x286 + x287 - 5 d67 >= 0
d67 - x259 >= 0
d67 - x260 >= 0
d67 - x265 >= 0
d67 - x270 >= 0
d67 - x284 >= 0
d67 - x285 >= 0
d67 - x286 >= 0
d67 - x287 >= 0
\\AddConstants
\\SBOX
\\SBOX
\\SBOX
\\SBOX
\\SBOX
\\SBOX
\\SBOX
\\SBOX
\\SBOX
\\SBOX
\\SBOX
\\SBOX
\\SBOX
\\SBOX
\\SBOX
\\SBOX
\\Identity
\\Identity
\\Identity
\\Identity
\\Identity
\\Identity
\\Identity
\\Identity
\\Identity
\\Identity
\\Identity
\\Identity
\\Identity
\\Identity
\\Identity
\\Identity
\\GFColumnMultiplication
x272 + x277 + x282 + x287 + x288 + x289 + x290 + x291 - 5 d68 >= 0
d68 - x272 >= 0
d68 - x277 >= 0
d68 - x282 >= 0
d68 - x287 >= 0
d68 - x288 >= 0
d68 - x289 >= 0
d68 - x290 >= 0
d68 - x291 >= 0
\\GFColumnMultiplication
x273 + x278 + x283 + x284 + x292 + x293 + x294 + x295 - 5 d69 >= 0
d69 - x273 >= 0
d69 - x278 >= 0
d69 - x283 >= 0
d69 - x284 >= 0
d69 - x292 >= 0
d69 - x293 >= 0
d69 - x294 >= 0
d69 - x295 >= 0
\\GFColumnMultiplication
x274 + x279 + x280 + x285 + x296 + x297 + x298 + x299 - 5 d70 >= 0
d70 - x274 >= 0
d70 - x279 >= 0
d70 - x280 >= 0
d70 - x285 >= 0
d70 - x296 >= 0
d70 - x297 >= 0
d70 - x298 >= 0
d70 - x299 >= 0
\\GFColumnMultiplication
x275 + x276 + x281 + x286 + x300 + x301 + x302 + x303 - 5 d71 >= 0
d71 - x275 >= 0
d71 - x276 >= 0
d71 - x281 >= 0
d71 - x286 >= 0
d71 - x300 >= 0
d71 - x301 >= 0
d71 - x302 >= 0
d71 - x303 >= 0
\\AddConstants
\\SBOX
\\SBOX
\\SBOX
\\SBOX
\\SBOX
\\SBOX
\\SBOX
\\SBOX
\\SBOX
\\SBOX
\\SBOX
\\SBOX
\\SBOX
\\SBOX
\\SBOX
\\SBOX
\\Identity
\\Identity
\\Identity
\\Identity
\\Identity
\\Identity
\\Identity
\\Identity
\\Identity
\\Identity
\\Identity
\\Identity
\\Identity
\\Identity
\\Identity
\\Identity
\\GFColumnMultiplication
x288 + x293 + x298 + x303 + x304 + x305 + x306 + x307 - 5 d72 >= 0
d72 - x288 >= 0
d72 - x293 >= 0
d72 - x298 >= 0
d72 - x303 >= 0
d72 - x304 >= 0
d72 - x305 >= 0
d72 - x306 >= 0
d72 - x307 >= 0
\\GFColumnMultiplication
x289 + x294 + x299 + x300 + x308 + x309 + x310 + x311 - 5 d73 >= 0
d73 - x289 >= 0
d73 - x294 >= 0
d73 - x299 >= 0
d73 - x300 >= 0
d73 - x308 >= 0
d73 - x309 >= 0
d73 - x310 >= 0
d73 - x311 >= 0
\\GFColumnMultiplication
x290 + x295 + x296 + x301 + x312 + x313 + x314 + x315 - 5 d74 >= 0
d74 - x290 >= 0
d74 - x295 >= 0
d74 - x296 >= 0
d74 - x301 >= 0
d74 - x312 >= 0
d74 - x313 >= 0
d74 - x314 >= 0
d74 - x315 >= 0
\\GFColumnMultiplication
x291 + x292 + x297 + x302 + x316 + x317 + x318 + x319 - 5 d75 >= 0
d75 - x291 >= 0
d75 - x292 >= 0
d75 - x297 >= 0
d75 - x302 >= 0
d75 - x316 >= 0
d75 - x317 >= 0
d75 - x318 >= 0
d75 - x319 >= 0
x0 + x1 + x2 + x3 + x4 + x5 + x6 + x7 + x8 + x9 + x10 + x11 + x12 + x13 + x14 + x15 >= 1

Binary
d0
d1
d2
d3
d4
d5
d6
d7
d8
d9
d10
d11
d12
d13
d14
d15
d16
d17
d18
d19
d20
d21
d22
d23
d24
d25
d26
d27
d28
d29
d30
d31
d32
d33
d34
d35
d36
d37
d38
d39
d40
d41
d42
d43
d44
d45
d46
d47
d48
d49
d50
d51
d52
d53
d54
d55
d56
d57
d58
d59
d60
d61
d62
d63
d64
d65
d66
d67
d68
d69
d70
d71
d72
d73
d74
d75
x0
x1
x2
x3
x4
x5
x6
x7
x8
x9
x10
x11
x12
x13
x14
x15
x16
x17
x18
x19
x20
x21
x22
x23
x24
x25
x26
x27
x28
x29
x30
x31
x32
x33
x34
x35
x36
x37
x38
x39
x40
x41
x42
x43
x44
x45
x46
x47
x48
x49
x50
x51
x52
x53
x54
x55
x56
x57
x58
x59
x60
x61
x62
x63
x64
x65
x66
x67
x68
x69
x70
x71
x72
x73
x74
x75
x76
x77
x78
x79
x80
x81
x82
x83
x84
x85
x86
x87
x88
x89
x90
x91
x92
x93
x94
x95
x96
x97
x98
x99
x100
x101
x102
x103
x104
x105
x106
x107
x108
x109
x110
x111
x112
x113
x114
x115
x116
x117
x118
x119
x120
x121
x122
x123
x124
x125
x126
x127
x128
x129
x130
x131
x132
x133
x134
x135
x136
x137
x138
x139
x140
x141
x142
x143
x144
x145
x146
x147
x148
x149
x150
x151
x152
x153
x154
x155
x156
x157
x158
x159
x160
x161
x162
x163
x164
x165
x166
x167
x168
x169
x170
x171
x172
x173
x174
x175
x176
x177
x178
x179
x180
x181
x182
x183
x184
x185
x186
x187
x188
x189
x190
x191
x192
x193
x194
x195
x196
x197
x198
x199
x200
x201
x202
x203
x204
x205
x206
x207
x208
x209
x210
x211
x212
x213
x214
x215
x216
x217
x218
x219
x220
x221
x222
x223
x224
x225
x226
x227
x228
x229
x230
x231
x232
x233
x234
x235
x236
x237
x238
x239
x240
x241
x242
x243
x244
x245
x246
x247
x248
x249
x250
x251
x252
x253
x254
x255
x256
x257
x258
x259
x260
x261
x262
x263
x264
x265
x266
x267
x268
x269
x270
x271
x272
x273
x274
x275
x276
x277
x278
x279
x280
x281
x282
x283
x284
x285
x286
x287
x288
x289
x290
x291
x292
x293
x294
x295
x296
x297
x298
x299
x300
x301
x302
x303
x304
x305
x306
x307
x308
x309
x310
x311
x312
x313
x314
x315
x316
x317
x318
x319
End